# Objective value = 3.0193547936554342e+02
x[0] 0
x[1] 1
x[2] 0
x[3] 0
x[4] 1
x[5] 1
x[6] 0
x[7] 1
x[8] 0
x[9] 1
x[10] 0
x[11] 0
x[12] 1
x[13] 0
x[14] 0
x[15] 1
x[16] 0
x[17] 0
x[18] 1
x[19] 1
x[20] 0
x[21] 0
x[22] 0
x[23] 1
x[24] 1
x[25] 0
x[26] 1
x[27] 1
x[28] 1
x[29] 0
x[30] 0
x[31] 0
x[32] 1
x[33] 1
x[34] 1
x[35] 0
x[36] 1
x[37] 1
x[38] 0
x[39] 1
x[40] 0
x[41] 0
x[42] 1
x[43] 0
x[44] 0
x[45] 1
x[46] 0
x[47] 0
x[48] 0
x[49] 1
x[50] 0
x[51] 1
x[52] 1
x[53] 0
x[54] 0
x[55] 0
x[56] 0
x[57] 1
x[58] 0
x[59] 0
x[60] 0
x[61] 0
x[62] 0
x[63] 1
x[64] 1
x[65] 1
x[66] 1
x[67] 0
x[68] 0
x[69] 0
x[70] 0
x[71] 1
x[72] 1
x[73] 1
x[74] 0
x[75] 1
x[76] 1
x[77] 1
x[78] 0
x[79] 1
x[80] 0
x[81] 0
x[82] 0
x[83] 0
x[84] 0
x[85] 1
x[86] 1
x[87] 0
x[88] 0
x[89] 1
x[90] 0
x[91] 1
x[92] 1
x[93] 0
x[94] 0
x[95] 0
x[96] 1
x[97] 0
x[98] 0
x[99] 0
x[100] 0
x[101] 1
x[102] 1
x[103] 1
x[104] 0
x[105] 0
x[106] 0
x[107] 0
x[108] 1
x[109] 1
x[110] 1
x[111] 1
x[112] 0
x[113] 1
x[114] 0
x[115] 1
x[116] 0
x[117] 1
x[118] 0
x[119] 0
x[120] 1
x[121] 0
x[122] 0
x[123] 0
x[124] 1
x[125] 0
x[126] 1
x[127] 0
x[128] 0
x[129] 0
x[130] 0
x[131] 0
x[132] 1
x[133] 0
x[134] 0
x[135] 1
x[136] 0
x[137] 1
x[138] 1
x[139] 0
x[140] 1
x[141] 0
x[142] 0
x[143] 0
x[144] 1
x[145] 0
x[146] 1
x[147] 0
x[148] 1
x[149] 0
x[150] 0
x[151] 1
x[152] 0
x[153] 0
x[154] 0
x[155] 0
x[156] 1
x[157] 0
x[158] 1
x[159] 1
x[160] 0
x[161] 0
x[162] 1
x[163] 1
x[164] 0
x[165] 0
x[166] 1
x[167] 1
x[168] 1
x[169] 1
x[170] 1
x[171] 1
x[172] 1
x[173] 1
x[174] 1
x[175] 0
x[176] 1
x[177] 0
x[178] 0
x[179] 1
x[180] 1
x[181] 0
x[182] 1
x[183] 0
x[184] 0
x[185] 1
x[186] 1
x[187] 0
x[188] 0
x[189] 0
x[190] 0
x[191] 1
x[192] 1
x[193] 0
x[194] 0
x[195] 0
x[196] 1
x[197] 0
x[198] 1
x[199] 1
x[200] 1
x[201] 0
x[202] 0
x[203] 0
x[204] 1
x[205] 0
x[206] 1
x[207] 0
x[208] 0
x[209] 0
x[210] 0
x[211] 1
x[212] 0
x[213] 1
x[214] 1
x[215] 1
x[216] 1
x[217] 0
x[218] 0
x[219] 0
x[220] 0
x[221] 0
x[222] 0
x[223] 1
x[224] 0
x[225] 1
x[226] 1
x[227] 1
x[228] 1
x[229] 1
x[230] 0
x[231] 0
x[232] 0
x[233] 1
x[234] 1
x[235] 1
x[236] 0
x[237] 1
x[238] 0
x[239] 0
x[240] 1
x[241] 0
x[242] 0
x[243] 0
x[244] 0
x[245] 0
x[246] 0
x[247] 1
x[248] 1
x[249] 0
x[250] 1
x[251] 0
x[252] 0
x[253] 1
x[254] 0
x[255] 0
x[256] 1
x[257] 1
x[258] 0
x[259] 1
x[260] 0
x[261] 0
x[262] 1
x[263] 1
x[264] 0
x[265] 0
x[266] 1
x[267] 1
x[268] 0
x[269] 1
x[270] 1
x[271] 0
x[272] 0
x[273] 1
x[274] 1
x[275] 1
x[276] 1
x[277] 1
x[278] 0
x[279] 0
x[280] 0
x[281] 0
x[282] 0
x[283] 1
x[284] 1
x[285] 1
x[286] 0
x[287] 0
x[288] 0
x[289] 1
x[290] 1
x[291] 1
x[292] 1
x[293] 0
x[294] 0
x[295] 0
x[296] 0
x[297] 0
x[298] 1
x[299] 0
x[300] 0
x[301] 1
x[302] 0
x[303] 0
x[304] 0
x[305] 1
x[306] 0
x[307] 1
x[308] 1
x[309] 1
x[310] 0
x[311] 1
x[312] 1
x[313] 0
x[314] 1
x[315] 1
x[316] 0
x[317] 0
x[318] 1
x[319] 1
x[320] 1
x[321] 1
x[322] 1
x[323] 1
x[324] 1
x[325] 0
x[326] 1
x[327] 1
x[328] 0
x[329] 0
x[330] 0
x[331] 1
x[332] 0
x[333] 1
x[334] 0
x[335] 1
x[336] 1
x[337] 1
x[338] 0
x[339] 0
x[340] 1
x[341] 1
x[342] 1
x[343] 0
x[344] 0
x[345] 1
x[346] 0
x[347] 1
x[348] 1
x[349] 1
x[350] 1
x[351] 0
x[352] 1
x[353] 1
x[354] 0
x[355] 0
x[356] 1
x[357] 0
x[358] 1
x[359] 1
x[360] 1
x[361] 0
x[362] 0
x[363] 1
x[364] 0
x[365] 1
x[366] 0
x[367] 1
x[368] 1
x[369] 1
x[370] 1
x[371] 0
x[372] 1
x[373] 0
x[374] 0
x[375] 1
x[376] 0
x[377] 1
x[378] 0
x[379] 1
x[380] 1
x[381] 0
x[382] 1
x[383] 1
x[384] 0
x[385] 1
x[386] 1
x[387] 1
x[388] 1
x[389] 0
x[390] 1
x[391] 1
x[392] 1
x[393] 0
x[394] 0
x[395] 1
x[396] 0
x[397] 1
x[398] 1
x[399] 1
x[400] 1
x[401] 1
x[402] 0
x[403] 0
x[404] 1
x[405] 0
x[406] 0
x[407] 0
x[408] 1
x[409] 1
x[410] 1
x[411] 0
x[412] 1
x[413] 0
x[414] 1
x[415] 1
x[416] 0
x[417] 1
x[418] 0
x[419] 1
x[420] 1
x[421] 0
x[422] 0
x[423] 1
x[424] 1
x[425] 1
x[426] 0
x[427] 1
x[428] 0
x[429] 0
x[430] 0
x[431] 0
x[432] 1
x[433] 1
x[434] 1
x[435] 1
x[436] 1
x[437] 1
x[438] 1
x[439] 1
x[440] 0
x[441] 1
x[442] 0
x[443] 1
x[444] 1
x[445] 0
x[446] 1
x[447] 1
x[448] 0
x[449] 0
x[450] 0
x[451] 1
x[452] 0
x[453] 1
x[454] 1
x[455] 1
x[456] 1
x[457] 1
x[458] 1
x[459] 0
x[460] 0
x[461] 1
x[462] 1
x[463] 0
x[464] 0
x[465] 0
x[466] 0
x[467] 1
x[468] 0
x[469] 0
x[470] 0
x[471] 0
x[472] 0
x[473] 1
x[474] 0
x[475] 0
x[476] 0
x[477] 0
x[478] 0
x[479] 0
x[480] 0
x[481] 0
x[482] 1
x[483] 1
x[484] 0
x[485] 0
x[486] 0
x[487] 0
x[488] 0
x[489] 1
x[490] 0
x[491] 1
x[492] 0
x[493] 1
x[494] 0
x[495] 0
x[496] 1
x[497] 1
x[498] 1
x[499] 0
x[500] 0
x[501] 1
x[502] 0
x[503] 1
x[504] 0
x[505] 1
x[506] 0
x[507] 0
x[508] 1
x[509] 0
x[510] 0
x[511] 0
x[512] 1
x[513] 0
x[514] 0
x[515] 1
x[516] 1
x[517] 1
x[518] 1
x[519] 1
x[520] 1
x[521] 0
x[522] 0
x[523] 0
x[524] 0
x[525] 0
x[526] 1
x[527] 1
x[528] 0
x[529] 0
x[530] 0
x[531] 1
x[532] 1
x[533] 1
x[534] 0
x[535] 1
x[536] 1
x[537] 0
x[538] 1
x[539] 0
x[540] 1
x[541] 0
x[542] 0
x[543] 0
x[544] 1
x[545] 0
x[546] 0
x[547] 1
x[548] 0
x[549] 1
x[550] 0
x[551] 1
x[552] 0
x[553] 0
x[554] 1
x[555] 1
x[556] 1
x[557] 0
x[558] 1
x[559] 0
x[560] 1
x[561] 0
x[562] 0
x[563] 0
x[564] 1
x[565] 1
x[566] 1
x[567] 1
x[568] 0
x[569] 0
x[570] 0
x[571] 1
x[572] 0
x[573] 1
x[574] 1
x[575] 1
x[576] 1
x[577] 1
x[578] 0
x[579] 1
x[580] 1
x[581] 0
x[582] 0
x[583] 0
x[584] 1
x[585] 1
x[586] 1
x[587] 0
x[588] 1
x[589] 1
x[590] 0
x[591] 1
x[592] 0
x[593] 0
x[594] 0
x[595] 0
x[596] 1
x[597] 0
x[598] 0
x[599] 0
x[600] 1
x[601] 1
x[602] 1
x[603] 1
x[604] 1
x[605] 0
x[606] 0
x[607] 1
x[608] 1
x[609] 1
x[610] 0
x[611] 1
x[612] 1
x[613] 1
x[614] 0
x[615] 1
x[616] 0
x[617] 0
x[618] 0
x[619] 1
x[620] 0
x[621] 1
x[622] 1
x[623] 0
x[624] 1
x[625] 1
x[626] 1
x[627] 1
x[628] 0
x[629] 1
x[630] 1
x[631] 0
x[632] 0
x[633] 1
x[634] 0
x[635] 0
x[636] 0
x[637] 0
x[638] 0
x[639] 1
x[640] 0
x[641] 1
x[642] 0
x[643] 1
x[644] 1
x[645] 0
x[646] 0
x[647] 1
x[648] 1
x[649] 1
x[650] 1
x[651] 1
x[652] 1
x[653] 0
x[654] 0
x[655] 0
x[656] 1
x[657] 0
x[658] 0
x[659] 1
x[660] 0
x[661] 1
x[662] 1
x[663] 0
x[664] 0
x[665] 1
x[666] 1
x[667] 1
x[668] 0
x[669] 1
x[670] 0
x[671] 1
x[672] 0
x[673] 0
x[674] 1
x[675] 1
x[676] 1
x[677] 0
x[678] 0
x[679] 0
x[680] 0
x[681] 0
x[682] 1
x[683] 0
x[684] 1
x[685] 0
x[686] 1
x[687] 1
x[688] 1
x[689] 0
x[690] 0
x[691] 0
x[692] 0
x[693] 0
x[694] 1
x[695] 1
x[696] 1
x[697] 1
x[698] 0
x[699] 0
x[700] 0
x[701] 0
x[702] 0
x[703] 1
x[704] 1
x[705] 0
x[706] 1
x[707] 0
x[708] 0
x[709] 1
x[710] 1
x[711] 0
x[712] 1
x[713] 1
x[714] 1
x[715] 1
x[716] 0
x[717] 0
x[718] 0
x[719] 0
x[720] 0
x[721] 0
x[722] 1
x[723] 1
x[724] 1
x[725] 1
x[726] 1
x[727] 0
x[728] 0
x[729] 1
x[730] 1
x[731] 0
x[732] 1
x[733] 1
x[734] 0
x[735] 1
x[736] 1
x[737] 0
x[738] 1
x[739] 0
x[740] 0
x[741] 0
x[742] 0
x[743] 1
x[744] 0
x[745] 1
x[746] 0
x[747] 0
x[748] 0
x[749] 1
x[750] 1
x[751] 0
x[752] 0
x[753] 1
x[754] 1
x[755] 0
x[756] 1
x[757] 0
x[758] 1
x[759] 0
x[760] 0
x[761] 1
x[762] 1
x[763] 0
x[764] 1
x[765] 1
x[766] 0
x[767] 1
x[768] 0
x[769] 1
x[770] 0
x[771] 0
x[772] 0
x[773] 0
x[774] 1
x[775] 0
x[776] 0
x[777] 0
x[778] 1
x[779] 0
x[780] 0
x[781] 0
x[782] 0
x[783] 0
x[784] 0
x[785] 1
x[786] 1
x[787] 0
x[788] 0
x[789] 0
x[790] 1
x[791] 1
x[792] 0
x[793] 1
x[794] 0
x[795] 0
x[796] 1
x[797] 0
x[798] 0
x[799] 1
x[800] 1
x[801] 0
x[802] 0
x[803] 0
x[804] 1
x[805] 0
x[806] 0
x[807] 1
x[808] 0
x[809] 0
x[810] 1
x[811] 0
x[812] 1
x[813] 0
x[814] 0
x[815] 0
x[816] 1
x[817] 1
x[818] 0
x[819] 0
x[820] 1
x[821] 0
x[822] 1
x[823] 0
x[824] 1
x[825] 0
x[826] 0
x[827] 0
x[828] 0
x[829] 0
x[830] 1
x[831] 1
x[832] 1
x[833] 1
x[834] 0
x[835] 0
x[836] 1
x[837] 1
x[838] 0
x[839] 0
x[840] 0
x[841] 0
x[842] 1
x[843] 1
x[844] 1
x[845] 0
x[846] 0
x[847] 1
x[848] 1
x[849] 0
x[850] 0
x[851] 0
x[852] 1
x[853] 1
x[854] 0
x[855] 1
x[856] 1
x[857] 0
x[858] 1
x[859] 1
x[860] 0
x[861] 1
x[862] 1
x[863] 0
x[864] 1
x[865] 1
x[866] 1
x[867] 0
x[868] 0
x[869] 0
x[870] 0
x[871] 0
x[872] 0
x[873] 1
x[874] 0
x[875] 0
x[876] 0
x[877] 1
x[878] 0
x[879] 0
x[880] 1
x[881] 0
x[882] 0
x[883] 1
x[884] 0
x[885] 0
x[886] 0
x[887] 0
x[888] 1
x[889] 0
x[890] 1
x[891] 0
x[892] 1
x[893] 0
x[894] 1
x[895] 1
x[896] 0
x[897] 1
x[898] 1
x[899] 1
x[900] 1
x[901] 0
x[902] 1
x[903] 1
x[904] 0
x[905] 0
x[906] 0
x[907] 1
x[908] 1
x[909] 0
x[910] 0
x[911] 0
x[912] 0
x[913] 0
x[914] 0
x[915] 0
x[916] 1
x[917] 1
x[918] 0
x[919] 1
x[920] 1
x[921] 1
x[922] 1
x[923] 0
x[924] 0
x[925] 1
x[926] 0
x[927] 1
x[928] 1
x[929] 0
x[930] 1
x[931] 0
x[932] 1
x[933] 1
x[934] 1
x[935] 0
x[936] 1
x[937] 0
x[938] 1
x[939] 1
x[940] 1
x[941] 1
x[942] 0
x[943] 0
x[944] 1
x[945] 1
x[946] 1
x[947] 1
x[948] 0
x[949] 0
x[950] 0
x[951] 1
x[952] 1
x[953] 0
x[954] 0
x[955] 1
x[956] 1
x[957] 1
x[958] 1
x[959] 1
x[960] 1
x[961] 1
x[962] 0
x[963] 1
x[964] 0
x[965] 0
x[966] 1
x[967] 0
x[968] 1
x[969] 1
x[970] 0
x[971] 1
x[972] 1
x[973] 1
x[974] 0
x[975] 0
x[976] 0
x[977] 0
x[978] 1
x[979] 0
x[980] 0
x[981] 1
x[982] 0
x[983] 1
x[984] 0
x[985] 1
x[986] 0
x[987] 1
x[988] 1
x[989] 0
x[990] 1
x[991] 0
x[992] 1
x[993] 0
x[994] 0
x[995] 0
x[996] 0
x[997] 1
x[998] 0
x[999] 1
